sat
(:eliminated-applications 2
 :eliminated-vars         1
 :max-memory              17.95
 :memory                  17.95
 :nlsat-propagations      4
 :nlsat-stages            3
 :num-allocs              18290
 :rlimit-count            1064
 :time                    0.00
 :total-time              0.01)
